
Gurobi 11.0.0 (win64) logging started Fri May  3 16:47:15 2024

Set parameter LogFile to value "./Results/StripPacking-CutHeurRuns/Logs/RU-010-StripPacking-10.log"
Set parameter TimeLimit to value 10800
Set parameter Cuts to value 0
Set parameter Presolve to value 1
Set parameter Heuristics to value 0
Set parameter LPWarmStart to value 2
Gurobi Optimizer version 11.0.0 build v11.0.0rc2 (win64 - Windows 10.0 (19045.2))

CPU model: Intel(R) Core(TM) i9-10980XE CPU @ 3.00GHz, instruction set [SSE2|AVX|AVX2|AVX512]
Thread count: 18 physical cores, 36 logical processors, using up to 18 threads

Optimize a model with 685 rows, 201 columns and 1820 nonzeros
Model fingerprint: 0x0cf9fee5
Variable types: 21 continuous, 180 integer (180 binary)
Coefficient statistics:
  Matrix range     [1e+00, 1e+04]
  Objective range  [1e+00, 1e+00]
  Bounds range     [1e+00, 1e+04]
  RHS range        [1e+00, 1e+04]

Warning: Completing partial solution with 180 unfixed non-continuous variables out of 180
User MIP start produced solution with objective 50 (0.00s)
Loaded user MIP start with objective 50

Presolve removed 128 rows and 22 columns
Presolve time: 0.02s
Presolved: 557 rows, 179 columns, 1724 nonzeros
Variable types: 21 continuous, 158 integer (158 binary)

Root relaxation: objective 3.500000e+01, 173 iterations, 0.00 seconds (0.00 work units)

    Nodes    |    Current Node    |     Objective Bounds      |     Work
 Expl Unexpl |  Obj  Depth IntInf | Incumbent    BestBd   Gap | It/Node Time

     0     0   35.00000    0    4   50.00000   35.00000  30.0%     -    0s
     0     0   35.00000    0    4   50.00000   35.00000  30.0%     -    0s
     0     2   35.00000    0    4   50.00000   35.00000  30.0%     -    0s
*  531   819              39      46.0000000   35.00000  23.9%  10.6    0s
*  789   819              38      42.0000000   35.00000  16.7%  10.6    0s
* 1795  1203              24      41.0000000   35.00000  14.6%   9.7    0s
* 6276  1314              27      39.0000000   35.00000  10.3%   9.1    0s

Explored 6808 nodes (67925 simplex iterations) in 0.25 seconds (0.21 work units)
Thread count was 18 (of 36 available processors)

Solution count 5: 39 41 42 ... 50

Optimal solution found (tolerance 1.00e-04)
Best objective 3.900000000000e+01, best bound 3.900000000000e+01, gap 0.0000%
